NAME : pbd984
COMMENT : Bonn VLSI data set with 984 points
COMMENT : Uni Bonn, Research Institute for Discrete Math
COMMENT : Contributed by Andre Rohe
TYPE : TSP
DIMENSION : 984
EDGE_WEIGHT_TYPE : EUC_2D
NODE_COORD_SECTION
1 0 101
2 0 106
3 0 11
4 0 111
5 0 116
6 0 121
7 0 126
8 0 131
9 0 16
10 0 21
11 0 26
12 0 31
13 0 36
14 0 41
15 0 45
16 0 46
17 0 49
18 0 51
19 0 56
20 0 6
21 0 61
22 0 66
23 0 71
24 0 76
25 0 81
26 0 86
27 0 91
28 0 95
29 0 96
30 0 97
31 2 103
32 2 105
33 2 106
34 2 108
35 2 11
36 2 110
37 2 117
38 2 122
39 2 124
40 2 13
41 2 15
42 2 27
43 2 29
44 2 31
45 2 33
46 2 38
47 2 43
48 2 45
49 2 46
50 2 48
51 2 50
52 2 51
53 2 53
54 2 54
55 2 56
56 2 57
57 2 59
58 2 69
59 2 71
60 2 73
61 2 75
62 2 77
63 2 78
64 2 80
65 2 82
66 2 84
67 2 87
68 2 89
69 2 90
70 2 92
71 2 94
72 2 98
73 5 101
74 5 104
75 5 110
76 5 114
77 5 12
78 5 120
79 5 128
80 5 132
81 5 15
82 5 17
83 5 19
84 5 21
85 5 23
86 5 25
87 5 28
88 5 30
89 5 33
90 5 38
91 5 45
92 5 47
93 5 50
94 5 53
95 5 56
96 5 59
97 5 64
98 5 70
99 5 72
100 5 74
101 5 77
102 5 8
103 5 80
104 5 84
105 5 89
106 5 91
107 5 93
108 5 97
109 8 34
110 8 40
111 8 60
112 8 66
113 9 108
114 9 111
115 9 13
116 9 31
117 9 34
118 9 40
119 9 43
120 9 48
121 9 51
122 9 54
123 9 57
124 9 60
125 9 66
126 9 75
127 9 78
128 9 82
129 9 87
130 9 94
131 9 98
132 10 103
133 10 108
134 10 11
135 10 111
136 10 13
137 10 27
138 10 29
139 10 31
140 10 34
141 10 40
142 10 43
143 10 46
144 10 48
145 10 51
146 10 54
147 10 57
148 10 60
149 10 66
150 10 69
151 10 71
152 10 73
153 10 75
154 10 78
155 10 82
156 10 87
157 10 90
158 10 92
159 10 94
160 10 98
161 11 103
162 11 108
163 11 11
164 11 111
165 11 126
166 11 13
167 11 16
168 11 27
169 11 29
170 11 31
171 11 34
172 11 41
173 11 43
174 11 46
175 11 48
176 11 51
177 11 54
178 11 57
179 11 60
180 11 67
181 11 69
182 11 71
183 11 73
184 11 75
185 11 78
186 11 82
187 11 87
188 11 90
189 11 92
190 11 94
191 11 98
192 12 111
193 12 129
194 12 34
195 12 5
196 12 60
197 12 94
198 12 98
199 15 101
200 15 104
201 15 114
202 15 12
203 15 120
204 15 132
205 15 17
206 15 19
207 15 21
208 15 23
209 15 25
210 15 28
211 15 30
212 15 47
213 15 70
214 15 72
215 15 74
216 15 8
217 15 91
218 15 93
219 15 97
220 17 106
221 17 122
222 17 124
223 18 100
224 18 112
225 18 114
226 18 115
227 18 116
228 18 118
229 18 119
230 18 137
231 18 35
232 18 36
233 18 38
234 18 40
235 18 61
236 18 62
237 18 64
238 18 65
239 18 66
240 18 95
241 18 96
242 18 99
243 25 108
244 25 11
245 25 110
246 25 112
247 25 114
248 25 116
249 25 118
250 25 120
251 25 122
252 25 124
253 25 18
254 28 103
255 28 108
256 28 110
257 28 112
258 28 114
259 28 116
260 28 118
261 28 122
262 28 125
263 28 128
264 28 132
265 28 25
266 28 33
267 28 41
268 28 49
269 28 57
270 28 6
271 28 65
272 28 73
273 28 79
274 28 8
275 28 85
276 28 91
277 28 97
278 31 21
279 31 27
280 31 35
281 31 43
282 31 51
283 31 59
284 31 67
285 32 120
286 32 21
287 32 27
288 32 35
289 32 43
290 32 51
291 32 59
292 32 67
293 32 70
294 33 107
295 33 120
296 33 124
297 33 21
298 33 27
299 33 35
300 33 43
301 33 51
302 33 59
303 33 67
304 33 70
305 34 107
306 34 120
307 34 124
308 34 126
309 34 21
310 34 28
311 34 36
312 34 44
313 34 5
314 34 52
315 34 60
316 34 68
317 34 70
318 35 129
319 35 21
320 35 70
321 38 103
322 38 108
323 38 110
324 38 112
325 38 114
326 38 116
327 38 118
328 38 125
329 38 132
330 38 6
331 38 73
332 38 79
333 38 8
334 38 85
335 38 91
336 38 97
337 40 11
338 41 101
339 41 102
340 41 104
341 41 105
342 41 18
343 41 23
344 41 25
345 41 27
346 41 31
347 41 33
348 41 35
349 41 39
350 41 41
351 41 43
352 41 47
353 41 49
354 41 51
355 41 55
356 41 57
357 41 59
358 41 63
359 41 65
360 41 67
361 41 71
362 41 73
363 41 75
364 41 77
365 41 79
366 41 81
367 41 83
368 41 85
369 41 87
370 41 89
371 41 91
372 41 93
373 41 95
374 41 97
375 41 99
376 48 100
377 48 101
378 48 102
379 48 103
380 48 106
381 48 107
382 48 108
383 48 111
384 48 112
385 48 113
386 48 117
387 48 120
388 48 121
389 48 122
390 48 22
391 48 26
392 48 28
393 48 29
394 48 37
395 48 50
396 48 52
397 48 54
398 48 56
399 48 58
400 48 6
401 48 60
402 48 63
403 48 65
404 48 67
405 48 69
406 48 71
407 48 73
408 48 76
409 48 78
410 48 80
411 48 82
412 48 84
413 48 86
414 48 88
415 48 89
416 48 92
417 48 93
418 48 96
419 48 97
420 51 104
421 51 109
422 51 114
423 51 118
424 51 126
425 51 129
426 51 131
427 51 50
428 51 52
429 51 54
430 51 56
431 51 58
432 51 60
433 51 63
434 51 65
435 51 67
436 51 69
437 51 71
438 51 73
439 51 76
440 51 78
441 51 80
442 51 82
443 51 84
444 51 89
445 51 93
446 51 97
447 54 101
448 54 86
449 55 101
450 55 86
451 55 89
452 55 93
453 55 97
454 56 101
455 56 117
456 56 34
457 56 49
458 56 62
459 56 75
460 56 87
461 56 91
462 56 95
463 56 99
464 57 101
465 57 117
466 57 12
467 57 121
468 57 125
469 57 128
470 57 25
471 57 34
472 57 49
473 57 62
474 57 75
475 57 86
476 58 137
477 61 100
478 61 104
479 61 109
480 61 114
481 61 118
482 61 126
483 61 129
484 61 131
485 61 50
486 61 52
487 61 54
488 61 56
489 61 58
490 61 60
491 61 63
492 61 65
493 61 67
494 61 69
495 61 71
496 61 73
497 61 76
498 61 78
499 61 80
500 61 82
501 61 84
502 61 88
503 61 92
504 61 96
505 63 6
506 64 122
507 64 22
508 64 26
509 64 27
510 64 28
511 71 0
512 71 107
513 71 109
514 71 11
515 71 111
516 71 113
517 71 115
518 71 117
519 71 120
520 71 122
521 71 124
522 71 13
523 71 17
524 71 32
525 71 34
526 71 36
527 71 38
528 71 40
529 71 43
530 71 45
531 71 47
532 71 49
533 71 51
534 71 53
535 71 55
536 71 57
537 71 59
538 71 61
539 71 63
540 71 65
541 71 67
542 71 68
543 71 69
544 71 71
545 71 92
546 71 94
547 71 98
548 74 108
549 74 11
550 74 112
551 74 116
552 74 120
553 74 127
554 74 129
555 74 13
556 74 15
557 74 21
558 74 24
559 74 28
560 74 32
561 74 34
562 74 36
563 74 38
564 74 40
565 74 44
566 74 48
567 74 52
568 74 56
569 74 60
570 74 64
571 74 78
572 74 8
573 74 86
574 74 92
575 74 94
576 74 96
577 77 74
578 77 80
579 77 88
580 78 106
581 78 42
582 78 74
583 78 80
584 78 88
585 79 10
586 79 106
587 79 31
588 79 42
589 79 74
590 79 80
591 79 88
592 79 91
593 79 97
594 80 10
595 80 106
596 80 126
597 80 19
598 80 22
599 80 31
600 80 42
601 80 74
602 80 81
603 80 89
604 80 91
605 80 97
606 81 5
607 81 74
608 84 11
609 84 127
610 84 129
611 84 13
612 84 15
613 84 32
614 84 34
615 84 36
616 84 38
617 84 40
618 84 8
619 84 92
620 84 94
621 84 96
622 86 122
623 86 124
624 86 17
625 87 71
626 87 75
627 87 76
628 87 78
629 87 79
630 87 83
631 87 84
632 87 86
633 87 88
634 94 101
635 94 103
636 94 104
637 94 106
638 94 107
639 94 11
640 94 65
641 94 66
642 94 68
643 94 70
644 94 72
645 94 74
646 94 85
647 94 9
648 94 97
649 94 99
650 97 103
651 97 108
652 97 113
653 97 121
654 97 128
655 97 132
656 97 14
657 97 20
658 97 28
659 97 36
660 97 44
661 97 52
662 97 60
663 97 75
664 97 80
665 97 86
666 97 91
667 97 98
668 100 104
669 100 109
670 100 115
671 100 123
672 100 16
673 100 22
674 100 30
675 100 38
676 100 46
677 100 54
678 100 62
679 100 76
680 100 82
681 100 87
682 100 93
683 101 101
684 101 104
685 101 109
686 101 115
687 101 123
688 101 16
689 101 22
690 101 30
691 101 38
692 101 46
693 101 54
694 101 62
695 101 76
696 101 82
697 101 87
698 101 93
699 101 96
700 102 101
701 102 105
702 102 107
703 102 109
704 102 115
705 102 123
706 102 16
707 102 22
708 102 30
709 102 38
710 102 46
711 102 54
712 102 62
713 102 74
714 102 76
715 102 82
716 102 85
717 102 87
718 102 93
719 102 96
720 103 101
721 103 104
722 103 107
723 103 109
724 103 116
725 103 124
726 103 126
727 103 13
728 103 16
729 103 23
730 103 31
731 103 39
732 103 47
733 103 5
734 103 55
735 103 63
736 103 70
737 103 74
738 103 76
739 103 83
740 103 85
741 103 87
742 103 94
743 103 96
744 104 109
745 104 129
746 104 16
747 104 76
748 104 87
749 107 106
750 107 108
751 107 132
752 107 14
753 107 75
754 107 86
755 109 66
756 109 67
757 109 68
758 110 110
759 110 111
760 110 113
761 110 114
762 110 115
763 110 118
764 110 119
765 110 121
766 110 122
767 110 123
768 110 18
769 110 20
770 110 22
771 110 26
772 110 28
773 110 30
774 110 34
775 110 36
776 110 38
777 110 42
778 110 44
779 110 46
780 110 50
781 110 52
782 110 54
783 110 58
784 110 60
785 110 62
786 110 77
787 110 78
788 110 80
789 110 81
790 110 82
791 110 88
792 110 89
793 110 91
794 110 92
795 110 93
796 117 101
797 117 103
798 117 105
799 117 106
800 117 108
801 117 11
802 117 115
803 117 119
804 117 121
805 117 123
806 117 124
807 117 27
808 117 32
809 117 33
810 117 34
811 117 40
812 117 41
813 117 43
814 117 44
815 117 45
816 117 48
817 117 49
818 117 50
819 117 53
820 117 54
821 117 55
822 117 59
823 117 61
824 117 63
825 117 65
826 117 69
827 117 71
828 117 73
829 117 74
830 117 76
831 117 78
832 117 79
833 117 81
834 117 82
835 117 87
836 117 91
837 117 95
838 117 97
839 117 98
840 120 102
841 120 105
842 120 112
843 120 118
844 120 120
845 120 125
846 120 128
847 120 132
848 120 46
849 120 51
850 120 56
851 120 6
852 120 60
853 120 63
854 120 68
855 120 70
856 120 74
857 120 78
858 120 8
859 120 85
860 120 90
861 120 92
862 120 99
863 123 106
864 123 121
865 123 43
866 123 71
867 123 79
868 123 86
869 123 95
870 124 103
871 124 106
872 124 109
873 124 121
874 124 31
875 124 43
876 124 61
877 124 65
878 124 71
879 124 74
880 124 76
881 124 79
882 124 82
883 124 86
884 124 95
885 125 101
886 125 103
887 125 107
888 125 109
889 125 119
890 125 122
891 125 124
892 125 43
893 125 59
894 125 61
895 125 65
896 125 69
897 125 72
898 125 76
899 125 80
900 125 82
901 125 86
902 125 91
903 125 96
904 125 98
905 126 101
906 126 103
907 126 106
908 126 109
909 126 119
910 126 121
911 126 124
912 126 126
913 126 17
914 126 35
915 126 43
916 126 5
917 126 59
918 126 61
919 126 65
920 126 69
921 126 71
922 126 76
923 126 79
924 126 82
925 126 86
926 126 91
927 126 95
928 126 98
929 127 109
930 127 129
931 127 65
932 127 82
933 127 86
934 130 102
935 130 108
936 130 112
937 130 118
938 130 120
939 130 123
940 130 125
941 130 132
942 130 137
943 130 46
944 130 51
945 130 56
946 130 6
947 130 60
948 130 68
949 130 70
950 130 73
951 130 8
952 130 81
953 130 85
954 130 92
955 130 97
956 130 99
957 132 11
958 132 41
959 133 110
960 133 112
961 133 113
962 133 114
963 133 116
964 133 117
965 133 27
966 133 66
967 133 67
968 133 83
969 133 84
970 133 88
971 133 89
972 143 108
973 143 110
974 143 123
975 143 14
976 143 27
977 143 40
978 143 53
979 143 66
980 143 69
981 143 79
982 143 82
983 143 95
984 143 97
EOF
